#=======================================================
# FHI-aims file: geometry.in
# Created using the Atomic Simulation Environment (ASE)
# Wed Apr 17 11:48:28 2024
#=======================================================
lattice_vector 17.5512100000000011 0.0000000000000000 0.0000000000000000 
lattice_vector 0.0000000000000000 11.3198399999999992 0.0000000000000000 
lattice_vector -3.4479348393071994 0.0000000000000000 15.5192980071229911 
atom 1.5371300000000001 6.0101415899999999 3.4027910399999999 C
atom 14.2954000000000008 0.3502215900000000 4.3664410399999998 C
atom 12.5714000000000006 5.3245815900000002 12.1261210399999992 C
atom -0.1868440000000000 10.9845015900000007 11.1624210399999999 C
atom -0.1530740000000000 6.6976015899999997 2.4450710400000002 H
atom 15.9855999999999998 1.0376915900000001 5.3241610399999999 H
atom 14.2615999999999996 4.6371115899999999 13.0838210400000001 H
atom -1.8770400000000000 10.2970015900000007 10.2047210400000008 H
atom 2.6613500000000001 7.4664415899999996 5.2335210400000003 C
atom 13.1712000000000007 1.8065215900000000 2.5357110399999998 C
atom 11.4472000000000005 3.8682715900000000 10.2953210399999993 C
atom 0.9373770000000000 9.5281915900000005 12.9931210400000001 C
atom 1.8914400000000000 9.3130715899999998 5.7301110399999997 H
atom 13.9411000000000005 3.6531515899999998 2.0391210399999999 H
atom 12.2171000000000003 2.0216415900000002 9.7987810399999997 H
atom 0.1674680000000000 7.6815615900000003 13.4897210399999992 H
atom 4.8703000000000003 6.6123915899999997 6.5191810400000003 C
atom 10.9621999999999993 0.9524795900000000 1.2500510400000000 C
atom 9.2382700000000000 4.7223215900000000 9.0097010399999995 C
atom 3.1463299999999998 10.3822015899999993 14.2788210400000004 C
atom 6.0656600000000003 8.0595415900000003 8.3845210399999992 C
atom 6.3189399999999996 2.3996215900000002 14.9040210399999999 C
atom 8.0429200000000005 3.2751715899999998 7.1443710400000002 C
atom 7.7896200000000002 8.9350915900000007 0.6248670400000000 C
atom 5.2933000000000003 9.9084715899999996 8.8793310400000003 H
atom 7.0913000000000004 4.2485615900000004 14.4092210400000003 H
atom 8.8152799999999996 1.4262415900000001 6.6495510400000004 H
atom 7.0172600000000003 7.0861615899999997 1.1196810399999999 H
atom 8.2192200000000000 7.1775615899999998 9.6474710399999992 C
atom 4.1653799999999999 1.5176515900000001 13.6410210400000000 C
atom 5.8893599999999999 4.1571515899999998 5.8814210400000002 C
atom 9.9431799999999999 9.8170715899999994 1.8878110400000001 C
atom 4.6676799999999998 2.7087915900000001 3.9694610400000001 C
atom 11.1648999999999994 8.3687215899999998 3.7997710400000000 C
atom 9.4408899999999996 8.6259215900000008 11.5594210400000001 C
atom 2.9437099999999998 2.9660015899999999 11.7291210400000008 C
atom 5.4458799999999998 0.8658215900000000 3.4819510400000002 H
atom 10.3866999999999994 6.5257415900000000 4.2872810399999999 H
atom 8.6626899999999996 10.4689015899999998 12.0469210400000009 H
atom 3.7219099999999998 4.8089715899999996 11.2416210400000001 H
atom 2.5593200000000000 3.6096915900000002 2.7545410399999999 C
atom 13.2731999999999992 9.2696115900000002 5.0146910399999998 C
atom 11.5493000000000006 7.7250315900000004 12.7743210400000002 C
atom 0.8353450000000000 2.0651115899999999 10.5142210400000007 C
atom 1.6600299999999999 2.4719815900000000 1.2890210400000000 H
atom 14.1724999999999994 8.1319015900000000 6.4802110400000004 H
atom 12.4484999999999992 8.8627315899999992 14.2398210400000007 H
atom -0.0639424000000000 3.2028115900000000 9.0486610400000007 H
